"file data/sdpa_12.dat-s generated by ncpol2sdpa"
1377 = number of vars
49 = number of blocs
(52, 1, 1, 1, 1, 1, 1, 1, 1, 1, 1, 1, 1, 1, 1, 1, 1, 1, 1, 1, 1, 1, 1, 1, 1, 1, 1, 1, 1, 1, 1, 1, 1, 1, 1, 1, 1, 1, 1, 1, 1, 1, 1, 1, 1, 1, 1, 1, 1) = BlocStructure
{0, 0, -4.0221280419524685, -5.09394043601378, -3.603937579796075, -7.341025265662015, -7.365503694709665, -8.530723668993414, -4.859670419954989, -5.659027870567886, -6.836376014019939, -4.73393152935278, -8.07158845690472, -8.265021000550094, 0, 0, 0, 0, 0, 0, 0, 0, 0, 0, 0, 0, 0, 0, 0, 0, 0, 0, 0, 0, 0, 0, 0, 0, 0, 0, 0, 0, 0, 0, 0, 0, 0, 0, 0, 0, 0, 0, 0, 0, 0, 0, 0, 0, 0, 0, 0, 0, 0, 0, 0, 0, 0, 0, 0, 0, 0, 0, 0, 0, 0, 0, 0, 0, 0, 0, 0, 0, 0, 0, 0, 0, 0, 0, 0, 0, 0, 0, 0, 0, 0, 0, 0, 0, 0, 0, 0, 0, 0, 0, 0, 0, 0, 0, 0, 0, 0, 0, 0, 0, 0, 0, 0, 0, 0, 0, 0, 0, 0, 0, 0, 0, 0, 0, 0, 0, 0, 0, 0, 0, 0, 0, 0, 0, 0, 0, 0, 0, 0, 0, 0, 0, 0, 0, 0, 0, 0, 0, 1.0, 0, 0, 0, 0, 0, 0, 0, 0, 0, 0, 0, 0, 0, 0, 0, 0, 0, 0, 0, 0, 0, 0, 0, 0, 0, 0, 0, 0, 0, 0, 0, 0, 0, 0, 0, 0, 0, 0, 0, 0, 0, 0, 0, 0, 0, 0, 0, 0, 1.0000000000000002, 0, 0, 0, 0, 0, 0, 0, 0, 0, 0, 0, 0, 0, 0, 0, 0, 0, 0, 0, 0, 0, 0, 0, 0, 0, 0, 0, 0, 0, 0, 0, 0, 0, 0, 0, 0, 0, 0, 0, 0, 0, 0, 0, 0, 0, 0, 0, 1.0000000000000002, 0, 0, 0, 0, 0, 0, 0, 0, 0, 0, 0, 0, 0, 0, 0, 0, 0, 0, 0, 0, 0, 0, 0, 0, 0, 0, 0, 0, 0, 0, 0, 0, 0, 0, 0, 0, 0, 0, 0, 0, 0, 0, 0, 0, 0, 0, 0.9999999999999998, 0, 0, 0, 0, 0, 0, 0, 0, 0, 0, 0, 0, 0, 0, 0, 0, 0, 0, 0, 0, 0, 0, 0, 0, 0, 0, 0, 0, 0, 0, 0, 0, 0, 0, 0, 0, 0, 0, 0, 0, 0, 0, 0, 0, 0, 0.9999999999999999, 0, 0, 0, 0, 0, 0, 0, 0, 0, 0, 0, 0, 0, 0, 0, 0, 0, 0, 0, 0, 0, 0, 0, 0, 0, 0, 0, 0, 0, 0, 0, 0, 0, 0, 0, 0, 0, 0, 0, 0, 0, 0, 0, 0, 1.0, 0, 0, 0, 0, 0, 0, 0, 0, 0, 0, 0, 0, 0, 0, 0, 0, 0, 0, 0, 0, 0, 0, 0, 0, 0, 0, 0, 0, 0, 0, 0, 0, 0, 0, 0, 0, 0, 0, 0, 0, 0, 0, 0, 0.9999999999999999, 0, 0, 0, 0, 0, 0, 0, 0, 0, 0, 0, 0, 0, 0, 0, 0, 0, 0, 0, 0, 0, 0, 0, 0, 0, 0, 0, 0, 0, 0, 0, 0, 0, 0, 0, 0, 0, 0, 0, 0, 0, 0, 0.9999999999999999, 0, 0, 0, 0, 0, 0, 0, 0, 0, 0, 0, 0, 0, 0, 0, 0, 0, 0, 0, 0, 0, 0, 0, 0, 0, 0, 0, 0, 0, 0, 0, 0, 0, 0, 0, 0, 0, 0, 0, 0, 0, 0.9999999999999999, 0, 0, 0, 0, 0, 0, 0, 0, 0, 0, 0, 0, 0, 0, 0, 0, 0, 0, 0, 0, 0, 0, 0, 0, 0, 0, 0, 0, 0, 0, 0, 0, 0, 0, 0, 0, 0, 0, 0, 0, 0.9999999999999999, 0, 0, 0, 0, 0, 0, 0, 0, 0, 0, 0, 0, 0, 0, 0, 0, 0, 0, 0, 0, 0, 0, 0, 0, 0, 0, 0, 0, 0, 0, 0, 0, 0, 0, 0, 0, 0, 0, 0, 1.0, 0, 0, 0, 0, 0, 0, 0, 0, 0, 0, 0, 0, 0, 0, 0, 0, 0, 0, 0, 0, 0, 0, 0, 0, 0, 0, 0, 0, 0, 0, 0, 0, 0, 0, 0, 0, 0, 0, 0.9999999999999999, 0, 0, 0, 0, 0, 0, 0, 0, 0, 0, 0, 0, 0, 0, 0, 0, 0, 0, 0, 0, 0, 0, 0, 0, 0, 0, 0, 0, 0, 0, 0, 0, 0, 0, 0, 0, 0, 0.0005, 0, 0, 0, 0, 0, 0, 0, 0, 0, 0, 0, 0, 0, 0, 0, 0, 0, 0, 0, 0, 0, 0, 0, 0, 0, 0, 0, 0, 0, 0, 0, 0, 0, 0, 0, 0, 0.0005, 0, 0, 0, 0, 0, 0, 0, 0, 0, 0, 0, 0, 0, 0, 0, 0, 0, 0, 0, 0, 0, 0, 0, 0, 0, 0, 0, 0, 0, 0, 0, 0, 0, 0, 0, 0.0005, 0, 0, 0, 0, 0, 0, 0, 0, 0, 0, 0, 0, 0, 0, 0, 0, 0, 0, 0, 0, 0, 0, 0, 0, 0, 0, 0, 0, 0, 0, 0, 0, 0, 0, 0.0005, 0, 0, 0, 0, 0, 0, 0, 0, 0, 0, 0, 0, 0, 0, 0, 0, 0, 0, 0, 0, 0, 0, 0, 0, 0, 0, 0, 0, 0, 0, 0, 0, 0, 0.0005, 0, 0, 0, 0, 0, 0, 0, 0, 0, 0, 0, 0, 0, 0, 0, 0, 0, 0, 0, 0, 0, 0, 0, 0, 0, 0, 0, 0, 0, 0, 0, 0, 0.0005, 0, 0, 0, 0, 0, 0, 0, 0, 0, 0, 0, 0, 0, 0, 0, 0, 0, 0, 0, 0, 0, 0, 0, 0, 0, 0, 0, 0, 0, 0, 0, 0.0005, 0, 0, 0, 0, 0, 0, 0, 0, 0, 0, 0, 0, 0, 0, 0, 0, 0, 0, 0, 0, 0, 0, 0, 0, 0, 0, 0, 0, 0, 0, 0.0005, 0, 0, 0, 0, 0, 0, 0, 0, 0, 0, 0, 0, 0, 0, 0, 0, 0, 0, 0, 0, 0, 0, 0, 0, 0, 0, 0, 0, 0, 0.0005, 0, 0, 0, 0, 0, 0, 0, 0, 0, 0, 0, 0, 0, 0, 0, 0, 0, 0, 0, 0, 0, 0, 0, 0, 0, 0, 0, 0, 0.0005, 0, 0, 0, 0, 0, 0, 0, 0, 0, 0, 0, 0, 0, 0, 0, 0, 0, 0, 0, 0, 0, 0, 0, 0, 0, 0, 0, 0.0005, 0, 0, 0, 0, 0, 0, 0, 0, 0, 0, 0, 0, 0, 0, 0, 0, 0, 0, 0, 0, 0, 0, 0, 0, 0, 0, 0.0005, 0, 0, 0, 0, 0, 0, 0, 0, 0, 0, 0, 0, 0, 0, 0, 0, 0, 0, 0, 0, 0, 0, 0, 0, 0, 0, 0, 0, 0, 0, 0, 0, 0, 0, 0, 0, 0, 0, 0, 0, 0, 0, 0, 0, 0, 0, 0, 0, 0, 0, 0, 0, 0, 0, 0, 0, 0, 0, 0, 0, 0, 0, 0, 0, 0, 0, 0, 0, 0, 0, 0, 0, 0, 0, 0, 0, 0, 0, 0, 0, 0, 0, 0, 0, 0, 0, 0, 0, 0, 0, 0, 0, 0, 0, 0, 0, 0, 0, 0, 0, 0, 0, 0, 0, 0, 0, 0, 0, 0, 0, 0, 0, 0, 0, 0, 0, 0, 0, 0, 0, 0, 0, 0, 0, 0, 0, 0, 0, 0, 0, 0, 0, 0, 0, 0, 0, 0, 0, 0, 0, 0, 0, 0, 0, 0, 0, 0, 0, 0, 0, 0, 0, 0, 0, 0, 0, 0, 0, 0, 0, 0, 0, 0, 0, 0, 0, 0, 0, 0, 0, 0, 0, 0, 0, 0, 0, 0, 0, 0, 0, 0, 0, 0, 0, 0, 0, 0, 0, 0, 0, 0, 0, 0, 0, 0, 0, 0, 0, 0, 0, 0, 0, 0, 0, 0, 0, 0, 0, 0, 0, 0, 0, 0, 0, 0, 0, 0, 0, 0, 0, 0, 0, 0, 0, 0, 0, 0, 0, 0, 0, 0, 0, 0, 0, 0, 0, 0, 0, 0, 0, 0, 0, 0, 0, 0, 0, 0, 0, 0, 0, 0, 0, 0, 0, 0, 0, 0, 0, 0, 0, 0, 0, 0, 0, 0, 0, 0, 0, 0, 0, 0, 0, 0.0001, 0, 0, 0, 0, 0, 0, 0, 0, 0, 0, 0, 0.0001, 0, 0, 0, 0, 0, 0, 0, 0, 0, 0, 0.0001, 0, 0, 0, 0, 0, 0, 0, 0, 0, 0.0001, 0, 0, 0, 0, 0, 0, 0, 0, 0.0001, 0, 0, 0, 0, 0, 0, 0, 0.0001, 0, 0, 0, 0, 0, 0, 0.0001, 0, 0, 0, 0, 0, 0.0001, 0, 0, 0, 0, 0.0001, 0, 0, 0, 0.0001, 0, 0, 0.0001, 0, 0.0001}
0	1	1	1	-1.0
1	1	1	2	1.0
2	1	1	3	1.0
3	1	1	4	1.0
3	2	1	1	1.0
3	14	1	1	-1.0
4	1	1	5	1.0
4	3	1	1	1.0
4	15	1	1	-1.0
5	1	1	6	1.0
5	4	1	1	1.0
5	16	1	1	-1.0
6	1	1	7	1.0
6	5	1	1	1.0
6	17	1	1	-1.0
7	1	1	8	1.0
7	6	1	1	1.0
7	18	1	1	-1.0
8	1	1	9	1.0
8	7	1	1	1.0
8	19	1	1	-1.0
9	1	1	10	1.0
9	8	1	1	1.0
9	20	1	1	-1.0
10	1	1	11	1.0
10	9	1	1	1.0
10	21	1	1	-1.0
11	1	1	12	1.0
11	10	1	1	1.0
11	22	1	1	-1.0
12	1	1	13	1.0
12	11	1	1	1.0
12	23	1	1	-1.0
13	1	1	14	1.0
13	12	1	1	1.0
13	24	1	1	-1.0
14	1	1	15	1.0
14	13	1	1	1.0
14	25	1	1	-1.0
15	1	1	16	1.0
15	2	1	1	-1.0
15	14	1	1	1.0
16	1	1	17	1.0
16	3	1	1	-1.0
16	15	1	1	1.0
17	1	1	18	1.0
17	4	1	1	-1.0
17	16	1	1	1.0
18	1	1	19	1.0
18	5	1	1	-1.0
18	17	1	1	1.0
19	1	1	20	1.0
19	6	1	1	-1.0
19	18	1	1	1.0
20	1	1	21	1.0
20	7	1	1	-1.0
20	19	1	1	1.0
21	1	1	22	1.0
21	8	1	1	-1.0
21	20	1	1	1.0
22	1	1	23	1.0
22	9	1	1	-1.0
22	21	1	1	1.0
23	1	1	24	1.0
23	10	1	1	-1.0
23	22	1	1	1.0
24	1	1	25	1.0
24	11	1	1	-1.0
24	23	1	1	1.0
25	1	1	26	1.0
25	12	1	1	-1.0
25	24	1	1	1.0
26	1	1	27	1.0
26	13	1	1	-1.0
26	25	1	1	1.0
27	1	1	28	1.0
28	1	1	29	1.0
28	26	1	1	1.0
28	38	1	1	-1.0
29	1	1	30	1.0
29	27	1	1	1.0
29	39	1	1	-1.0
30	1	1	31	1.0
30	28	1	1	1.0
30	40	1	1	-1.0
31	1	1	32	1.0
31	29	1	1	1.0
31	41	1	1	-1.0
32	1	1	33	1.0
32	30	1	1	1.0
32	42	1	1	-1.0
33	1	1	34	1.0
33	31	1	1	1.0
33	43	1	1	-1.0
34	1	1	35	1.0
34	32	1	1	1.0
34	44	1	1	-1.0
35	1	1	36	1.0
35	33	1	1	1.0
35	45	1	1	-1.0
36	1	1	37	1.0
36	34	1	1	1.0
36	46	1	1	-1.0
37	1	1	38	1.0
37	35	1	1	1.0
37	47	1	1	-1.0
38	1	1	39	1.0
38	36	1	1	1.0
38	48	1	1	-1.0
39	1	1	40	1.0
39	37	1	1	1.0
39	49	1	1	-1.0
40	1	1	41	1.0
40	26	1	1	-1.0
40	38	1	1	1.0
41	1	1	42	1.0
41	27	1	1	-1.0
41	39	1	1	1.0
42	1	1	43	1.0
42	28	1	1	-1.0
42	40	1	1	1.0
43	1	1	44	1.0
43	29	1	1	-1.0
43	41	1	1	1.0
44	1	1	45	1.0
44	30	1	1	-1.0
44	42	1	1	1.0
45	1	1	46	1.0
45	31	1	1	-1.0
45	43	1	1	1.0
46	1	1	47	1.0
46	32	1	1	-1.0
46	44	1	1	1.0
47	1	1	48	1.0
47	33	1	1	-1.0
47	45	1	1	1.0
48	1	1	49	1.0
48	34	1	1	-1.0
48	46	1	1	1.0
49	1	1	50	1.0
49	35	1	1	-1.0
49	47	1	1	1.0
50	1	1	51	1.0
50	36	1	1	-1.0
50	48	1	1	1.0
51	1	1	52	1.0
51	37	1	1	-1.0
51	49	1	1	1.0
52	1	2	2	1.0
53	1	2	3	1.0
54	1	2	4	1.0
55	1	2	5	1.0
56	1	2	6	1.0
57	1	2	7	1.0
58	1	2	8	1.0
59	1	2	9	1.0
60	1	2	10	1.0
61	1	2	11	1.0
62	1	2	12	1.0
63	1	2	13	1.0
64	1	2	14	1.0
65	1	2	15	1.0
66	1	2	16	1.0
67	1	2	17	1.0
68	1	2	18	1.0
69	1	2	19	1.0
70	1	2	20	1.0
71	1	2	21	1.0
72	1	2	22	1.0
73	1	2	23	1.0
74	1	2	24	1.0
75	1	2	25	1.0
76	1	2	26	1.0
77	1	2	27	1.0
78	1	2	28	1.0
78	26	1	1	-1.0
78	38	1	1	1.0
79	1	2	29	1.0
79	27	1	1	-1.0
79	39	1	1	1.0
80	1	2	30	1.0
80	28	1	1	-1.0
80	40	1	1	1.0
81	1	2	31	1.0
81	29	1	1	-1.0
81	41	1	1	1.0
82	1	2	32	1.0
82	30	1	1	-1.0
82	42	1	1	1.0
83	1	2	33	1.0
83	31	1	1	-1.0
83	43	1	1	1.0
84	1	2	34	1.0
84	32	1	1	-1.0
84	44	1	1	1.0
85	1	2	35	1.0
85	33	1	1	-1.0
85	45	1	1	1.0
86	1	2	36	1.0
86	34	1	1	-1.0
86	46	1	1	1.0
87	1	2	37	1.0
87	35	1	1	-1.0
87	47	1	1	1.0
88	1	2	38	1.0
88	36	1	1	-1.0
88	48	1	1	1.0
89	1	2	39	1.0
89	37	1	1	-1.0
89	49	1	1	1.0
90	1	2	40	1.0
91	1	2	41	1.0
92	1	2	42	1.0
93	1	2	43	1.0
94	1	2	44	1.0
95	1	2	45	1.0
96	1	2	46	1.0
97	1	2	47	1.0
98	1	2	48	1.0
99	1	2	49	1.0
100	1	2	50	1.0
101	1	2	51	1.0
102	1	2	52	1.0
103	1	3	3	1.0
104	1	3	4	1.0
105	1	3	5	1.0
106	1	3	6	1.0
107	1	3	7	1.0
108	1	3	8	1.0
109	1	3	9	1.0
110	1	3	10	1.0
111	1	3	11	1.0
112	1	3	12	1.0
113	1	3	13	1.0
114	1	3	14	1.0
115	1	3	15	1.0
116	1	3	16	1.0
117	1	3	17	1.0
118	1	3	18	1.0
119	1	3	19	1.0
120	1	3	20	1.0
121	1	3	21	1.0
122	1	3	22	1.0
123	1	3	23	1.0
124	1	3	24	1.0
125	1	3	25	1.0
126	1	3	26	1.0
127	1	3	27	1.0
128	1	3	28	1.0
129	1	3	29	1.0
129	2	1	1	-1.0
129	14	1	1	1.0
130	1	3	30	1.0
130	3	1	1	-1.0
130	15	1	1	1.0
131	1	3	31	1.0
131	4	1	1	-1.0
131	16	1	1	1.0
132	1	3	32	1.0
132	5	1	1	-1.0
132	17	1	1	1.0
133	1	3	33	1.0
133	6	1	1	-1.0
133	18	1	1	1.0
134	1	3	34	1.0
134	7	1	1	-1.0
134	19	1	1	1.0
135	1	3	35	1.0
135	8	1	1	-1.0
135	20	1	1	1.0
136	1	3	36	1.0
136	9	1	1	-1.0
136	21	1	1	1.0
137	1	3	37	1.0
137	10	1	1	-1.0
137	22	1	1	1.0
138	1	3	38	1.0
138	11	1	1	-1.0
138	23	1	1	1.0
139	1	3	39	1.0
139	12	1	1	-1.0
139	24	1	1	1.0
140	1	3	40	1.0
140	13	1	1	-1.0
140	25	1	1	1.0
141	1	3	41	1.0
142	1	3	42	1.0
143	1	3	43	1.0
144	1	3	44	1.0
145	1	3	45	1.0
146	1	3	46	1.0
147	1	3	47	1.0
148	1	3	48	1.0
149	1	3	49	1.0
150	1	3	50	1.0
151	1	3	51	1.0
152	1	3	52	1.0
153	1	4	4	1.0
154	1	4	5	1.0
155	1	4	6	1.0
156	1	4	7	1.0
157	1	4	8	1.0
158	1	4	9	1.0
159	1	4	10	1.0
160	1	4	11	1.0
161	1	4	12	1.0
162	1	4	13	1.0
163	1	4	14	1.0
164	1	4	15	1.0
165	1	4	16	1.0
166	1	4	17	1.0
167	1	4	18	1.0
168	1	4	19	1.0
169	1	4	20	1.0
170	1	4	21	1.0
171	1	4	22	1.0
172	1	4	23	1.0
173	1	4	24	1.0
174	1	4	25	1.0
175	1	4	26	1.0
176	1	4	27	1.0
177	1	4	28	1.0
178	1	4	29	1.0
179	1	4	30	1.0
180	1	4	31	1.0
181	1	4	32	1.0
182	1	4	33	1.0
183	1	4	34	1.0
184	1	4	35	1.0
185	1	4	36	1.0
186	1	4	37	1.0
187	1	4	38	1.0
188	1	4	39	1.0
189	1	4	40	1.0
190	1	4	41	1.0
191	1	4	42	1.0
192	1	4	43	1.0
193	1	4	44	1.0
194	1	4	45	1.0
195	1	4	46	1.0
196	1	4	47	1.0
197	1	4	48	1.0
198	1	4	49	1.0
199	1	4	50	1.0
200	1	4	51	1.0
201	1	4	52	1.0
202	1	5	5	1.0
203	1	5	6	1.0
204	1	5	7	1.0
205	1	5	8	1.0
206	1	5	9	1.0
207	1	5	10	1.0
208	1	5	11	1.0
209	1	5	12	1.0
210	1	5	13	1.0
211	1	5	14	1.0
212	1	5	15	1.0
213	1	5	16	1.0
214	1	5	17	1.0
215	1	5	18	1.0
216	1	5	19	1.0
217	1	5	20	1.0
218	1	5	21	1.0
219	1	5	22	1.0
220	1	5	23	1.0
221	1	5	24	1.0
222	1	5	25	1.0
223	1	5	26	1.0
224	1	5	27	1.0
225	1	5	28	1.0
226	1	5	29	1.0
227	1	5	30	1.0
228	1	5	31	1.0
229	1	5	32	1.0
230	1	5	33	1.0
231	1	5	34	1.0
232	1	5	35	1.0
233	1	5	36	1.0
234	1	5	37	1.0
235	1	5	38	1.0
236	1	5	39	1.0
237	1	5	40	1.0
238	1	5	41	1.0
239	1	5	42	1.0
240	1	5	43	1.0
241	1	5	44	1.0
242	1	5	45	1.0
243	1	5	46	1.0
244	1	5	47	1.0
245	1	5	48	1.0
246	1	5	49	1.0
247	1	5	50	1.0
248	1	5	51	1.0
249	1	5	52	1.0
250	1	6	6	1.0
251	1	6	7	1.0
252	1	6	8	1.0
253	1	6	9	1.0
254	1	6	10	1.0
255	1	6	11	1.0
256	1	6	12	1.0
257	1	6	13	1.0
258	1	6	14	1.0
259	1	6	15	1.0
260	1	6	16	1.0
261	1	6	17	1.0
262	1	6	18	1.0
263	1	6	19	1.0
264	1	6	20	1.0
265	1	6	21	1.0
266	1	6	22	1.0
267	1	6	23	1.0
268	1	6	24	1.0
269	1	6	25	1.0
270	1	6	26	1.0
271	1	6	27	1.0
272	1	6	28	1.0
273	1	6	29	1.0
274	1	6	30	1.0
275	1	6	31	1.0
276	1	6	32	1.0
277	1	6	33	1.0
278	1	6	34	1.0
279	1	6	35	1.0
280	1	6	36	1.0
281	1	6	37	1.0
282	1	6	38	1.0
283	1	6	39	1.0
284	1	6	40	1.0
285	1	6	41	1.0
286	1	6	42	1.0
287	1	6	43	1.0
288	1	6	44	1.0
289	1	6	45	1.0
290	1	6	46	1.0
291	1	6	47	1.0
292	1	6	48	1.0
293	1	6	49	1.0
294	1	6	50	1.0
295	1	6	51	1.0
296	1	6	52	1.0
297	1	7	7	1.0
298	1	7	8	1.0
299	1	7	9	1.0
300	1	7	10	1.0
301	1	7	11	1.0
302	1	7	12	1.0
303	1	7	13	1.0
304	1	7	14	1.0
305	1	7	15	1.0
306	1	7	16	1.0
307	1	7	17	1.0
308	1	7	18	1.0
309	1	7	19	1.0
310	1	7	20	1.0
311	1	7	21	1.0
312	1	7	22	1.0
313	1	7	23	1.0
314	1	7	24	1.0
315	1	7	25	1.0
316	1	7	26	1.0
317	1	7	27	1.0
318	1	7	28	1.0
319	1	7	29	1.0
320	1	7	30	1.0
321	1	7	31	1.0
322	1	7	32	1.0
323	1	7	33	1.0
324	1	7	34	1.0
325	1	7	35	1.0
326	1	7	36	1.0
327	1	7	37	1.0
328	1	7	38	1.0
329	1	7	39	1.0
330	1	7	40	1.0
331	1	7	41	1.0
332	1	7	42	1.0
333	1	7	43	1.0
334	1	7	44	1.0
335	1	7	45	1.0
336	1	7	46	1.0
337	1	7	47	1.0
338	1	7	48	1.0
339	1	7	49	1.0
340	1	7	50	1.0
341	1	7	51	1.0
342	1	7	52	1.0
343	1	8	8	1.0
344	1	8	9	1.0
345	1	8	10	1.0
346	1	8	11	1.0
347	1	8	12	1.0
348	1	8	13	1.0
349	1	8	14	1.0
350	1	8	15	1.0
351	1	8	16	1.0
352	1	8	17	1.0
353	1	8	18	1.0
354	1	8	19	1.0
355	1	8	20	1.0
356	1	8	21	1.0
357	1	8	22	1.0
358	1	8	23	1.0
359	1	8	24	1.0
360	1	8	25	1.0
361	1	8	26	1.0
362	1	8	27	1.0
363	1	8	28	1.0
364	1	8	29	1.0
365	1	8	30	1.0
366	1	8	31	1.0
367	1	8	32	1.0
368	1	8	33	1.0
369	1	8	34	1.0
370	1	8	35	1.0
371	1	8	36	1.0
372	1	8	37	1.0
373	1	8	38	1.0
374	1	8	39	1.0
375	1	8	40	1.0
376	1	8	41	1.0
377	1	8	42	1.0
378	1	8	43	1.0
379	1	8	44	1.0
380	1	8	45	1.0
381	1	8	46	1.0
382	1	8	47	1.0
383	1	8	48	1.0
384	1	8	49	1.0
385	1	8	50	1.0
386	1	8	51	1.0
387	1	8	52	1.0
388	1	9	9	1.0
389	1	9	10	1.0
390	1	9	11	1.0
391	1	9	12	1.0
392	1	9	13	1.0
393	1	9	14	1.0
394	1	9	15	1.0
395	1	9	16	1.0
396	1	9	17	1.0
397	1	9	18	1.0
398	1	9	19	1.0
399	1	9	20	1.0
400	1	9	21	1.0
401	1	9	22	1.0
402	1	9	23	1.0
403	1	9	24	1.0
404	1	9	25	1.0
405	1	9	26	1.0
406	1	9	27	1.0
407	1	9	28	1.0
408	1	9	29	1.0
409	1	9	30	1.0
410	1	9	31	1.0
411	1	9	32	1.0
412	1	9	33	1.0
413	1	9	34	1.0
414	1	9	35	1.0
415	1	9	36	1.0
416	1	9	37	1.0
417	1	9	38	1.0
418	1	9	39	1.0
419	1	9	40	1.0
420	1	9	41	1.0
421	1	9	42	1.0
422	1	9	43	1.0
423	1	9	44	1.0
424	1	9	45	1.0
425	1	9	46	1.0
426	1	9	47	1.0
427	1	9	48	1.0
428	1	9	49	1.0
429	1	9	50	1.0
430	1	9	51	1.0
431	1	9	52	1.0
432	1	10	10	1.0
433	1	10	11	1.0
434	1	10	12	1.0
435	1	10	13	1.0
436	1	10	14	1.0
437	1	10	15	1.0
438	1	10	16	1.0
439	1	10	17	1.0
440	1	10	18	1.0
441	1	10	19	1.0
442	1	10	20	1.0
443	1	10	21	1.0
444	1	10	22	1.0
445	1	10	23	1.0
446	1	10	24	1.0
447	1	10	25	1.0
448	1	10	26	1.0
449	1	10	27	1.0
450	1	10	28	1.0
451	1	10	29	1.0
452	1	10	30	1.0
453	1	10	31	1.0
454	1	10	32	1.0
455	1	10	33	1.0
456	1	10	34	1.0
457	1	10	35	1.0
458	1	10	36	1.0
459	1	10	37	1.0
460	1	10	38	1.0
461	1	10	39	1.0
462	1	10	40	1.0
463	1	10	41	1.0
464	1	10	42	1.0
465	1	10	43	1.0
466	1	10	44	1.0
467	1	10	45	1.0
468	1	10	46	1.0
469	1	10	47	1.0
470	1	10	48	1.0
471	1	10	49	1.0
472	1	10	50	1.0
473	1	10	51	1.0
474	1	10	52	1.0
475	1	11	11	1.0
476	1	11	12	1.0
477	1	11	13	1.0
478	1	11	14	1.0
479	1	11	15	1.0
480	1	11	16	1.0
481	1	11	17	1.0
482	1	11	18	1.0
483	1	11	19	1.0
484	1	11	20	1.0
485	1	11	21	1.0
486	1	11	22	1.0
487	1	11	23	1.0
488	1	11	24	1.0
489	1	11	25	1.0
490	1	11	26	1.0
491	1	11	27	1.0
492	1	11	28	1.0
493	1	11	29	1.0
494	1	11	30	1.0
495	1	11	31	1.0
496	1	11	32	1.0
497	1	11	33	1.0
498	1	11	34	1.0
499	1	11	35	1.0
500	1	11	36	1.0
501	1	11	37	1.0
502	1	11	38	1.0
503	1	11	39	1.0
504	1	11	40	1.0
505	1	11	41	1.0
506	1	11	42	1.0
507	1	11	43	1.0
508	1	11	44	1.0
509	1	11	45	1.0
510	1	11	46	1.0
511	1	11	47	1.0
512	1	11	48	1.0
513	1	11	49	1.0
514	1	11	50	1.0
515	1	11	51	1.0
516	1	11	52	1.0
517	1	12	12	1.0
518	1	12	13	1.0
519	1	12	14	1.0
520	1	12	15	1.0
521	1	12	16	1.0
522	1	12	17	1.0
523	1	12	18	1.0
524	1	12	19	1.0
525	1	12	20	1.0
526	1	12	21	1.0
527	1	12	22	1.0
528	1	12	23	1.0
529	1	12	24	1.0
530	1	12	25	1.0
531	1	12	26	1.0
532	1	12	27	1.0
533	1	12	28	1.0
534	1	12	29	1.0
535	1	12	30	1.0
536	1	12	31	1.0
537	1	12	32	1.0
538	1	12	33	1.0
539	1	12	34	1.0
540	1	12	35	1.0
541	1	12	36	1.0
542	1	12	37	1.0
543	1	12	38	1.0
544	1	12	39	1.0
545	1	12	40	1.0
546	1	12	41	1.0
547	1	12	42	1.0
548	1	12	43	1.0
549	1	12	44	1.0
550	1	12	45	1.0
551	1	12	46	1.0
552	1	12	47	1.0
553	1	12	48	1.0
554	1	12	49	1.0
555	1	12	50	1.0
556	1	12	51	1.0
557	1	12	52	1.0
558	1	13	13	1.0
559	1	13	14	1.0
560	1	13	15	1.0
561	1	13	16	1.0
562	1	13	17	1.0
563	1	13	18	1.0
564	1	13	19	1.0
565	1	13	20	1.0
566	1	13	21	1.0
567	1	13	22	1.0
568	1	13	23	1.0
569	1	13	24	1.0
570	1	13	25	1.0
571	1	13	26	1.0
572	1	13	27	1.0
573	1	13	28	1.0
574	1	13	29	1.0
575	1	13	30	1.0
576	1	13	31	1.0
577	1	13	32	1.0
578	1	13	33	1.0
579	1	13	34	1.0
580	1	13	35	1.0
581	1	13	36	1.0
582	1	13	37	1.0
583	1	13	38	1.0
584	1	13	39	1.0
585	1	13	40	1.0
586	1	13	41	1.0
587	1	13	42	1.0
588	1	13	43	1.0
589	1	13	44	1.0
590	1	13	45	1.0
591	1	13	46	1.0
592	1	13	47	1.0
593	1	13	48	1.0
594	1	13	49	1.0
595	1	13	50	1.0
596	1	13	51	1.0
597	1	13	52	1.0
598	1	14	14	1.0
599	1	14	15	1.0
600	1	14	16	1.0
601	1	14	17	1.0
602	1	14	18	1.0
603	1	14	19	1.0
604	1	14	20	1.0
605	1	14	21	1.0
606	1	14	22	1.0
607	1	14	23	1.0
608	1	14	24	1.0
609	1	14	25	1.0
610	1	14	26	1.0
611	1	14	27	1.0
612	1	14	28	1.0
613	1	14	29	1.0
614	1	14	30	1.0
615	1	14	31	1.0
616	1	14	32	1.0
617	1	14	33	1.0
618	1	14	34	1.0
619	1	14	35	1.0
620	1	14	36	1.0
621	1	14	37	1.0
622	1	14	38	1.0
623	1	14	39	1.0
624	1	14	40	1.0
625	1	14	41	1.0
626	1	14	42	1.0
627	1	14	43	1.0
628	1	14	44	1.0
629	1	14	45	1.0
630	1	14	46	1.0
631	1	14	47	1.0
632	1	14	48	1.0
633	1	14	49	1.0
634	1	14	50	1.0
635	1	14	51	1.0
636	1	14	52	1.0
637	1	15	15	1.0
638	1	15	16	1.0
639	1	15	17	1.0
640	1	15	18	1.0
641	1	15	19	1.0
642	1	15	20	1.0
643	1	15	21	1.0
644	1	15	22	1.0
645	1	15	23	1.0
646	1	15	24	1.0
647	1	15	25	1.0
648	1	15	26	1.0
649	1	15	27	1.0
650	1	15	28	1.0
651	1	15	29	1.0
652	1	15	30	1.0
653	1	15	31	1.0
654	1	15	32	1.0
655	1	15	33	1.0
656	1	15	34	1.0
657	1	15	35	1.0
658	1	15	36	1.0
659	1	15	37	1.0
660	1	15	38	1.0
661	1	15	39	1.0
662	1	15	40	1.0
663	1	15	41	1.0
664	1	15	42	1.0
665	1	15	43	1.0
666	1	15	44	1.0
667	1	15	45	1.0
668	1	15	46	1.0
669	1	15	47	1.0
670	1	15	48	1.0
671	1	15	49	1.0
672	1	15	50	1.0
673	1	15	51	1.0
674	1	15	52	1.0
675	1	16	16	1.0
676	1	16	17	1.0
677	1	16	18	1.0
678	1	16	19	1.0
679	1	16	20	1.0
680	1	16	21	1.0
681	1	16	22	1.0
682	1	16	23	1.0
683	1	16	24	1.0
684	1	16	25	1.0
685	1	16	26	1.0
686	1	16	27	1.0
687	1	16	28	1.0
688	1	16	29	1.0
689	1	16	30	1.0
690	1	16	31	1.0
691	1	16	32	1.0
692	1	16	33	1.0
693	1	16	34	1.0
694	1	16	35	1.0
695	1	16	36	1.0
696	1	16	37	1.0
697	1	16	38	1.0
698	1	16	39	1.0
699	1	16	40	1.0
700	1	16	41	1.0
701	1	16	42	1.0
702	1	16	43	1.0
703	1	16	44	1.0
704	1	16	45	1.0
705	1	16	46	1.0
706	1	16	47	1.0
707	1	16	48	1.0
708	1	16	49	1.0
709	1	16	50	1.0
710	1	16	51	1.0
711	1	16	52	1.0
712	1	17	17	1.0
713	1	17	18	1.0
714	1	17	19	1.0
715	1	17	20	1.0
716	1	17	21	1.0
717	1	17	22	1.0
718	1	17	23	1.0
719	1	17	24	1.0
720	1	17	25	1.0
721	1	17	26	1.0
722	1	17	27	1.0
723	1	17	28	1.0
724	1	17	29	1.0
725	1	17	30	1.0
726	1	17	31	1.0
727	1	17	32	1.0
728	1	17	33	1.0
729	1	17	34	1.0
730	1	17	35	1.0
731	1	17	36	1.0
732	1	17	37	1.0
733	1	17	38	1.0
734	1	17	39	1.0
735	1	17	40	1.0
736	1	17	41	1.0
737	1	17	42	1.0
738	1	17	43	1.0
739	1	17	44	1.0
740	1	17	45	1.0
741	1	17	46	1.0
742	1	17	47	1.0
743	1	17	48	1.0
744	1	17	49	1.0
745	1	17	50	1.0
746	1	17	51	1.0
747	1	17	52	1.0
748	1	18	18	1.0
749	1	18	19	1.0
750	1	18	20	1.0
751	1	18	21	1.0
752	1	18	22	1.0
753	1	18	23	1.0
754	1	18	24	1.0
755	1	18	25	1.0
756	1	18	26	1.0
757	1	18	27	1.0
758	1	18	28	1.0
759	1	18	29	1.0
760	1	18	30	1.0
761	1	18	31	1.0
762	1	18	32	1.0
763	1	18	33	1.0
764	1	18	34	1.0
765	1	18	35	1.0
766	1	18	36	1.0
767	1	18	37	1.0
768	1	18	38	1.0
769	1	18	39	1.0
770	1	18	40	1.0
771	1	18	41	1.0
772	1	18	42	1.0
773	1	18	43	1.0
774	1	18	44	1.0
775	1	18	45	1.0
776	1	18	46	1.0
777	1	18	47	1.0
778	1	18	48	1.0
779	1	18	49	1.0
780	1	18	50	1.0
781	1	18	51	1.0
782	1	18	52	1.0
783	1	19	19	1.0
784	1	19	20	1.0
785	1	19	21	1.0
786	1	19	22	1.0
787	1	19	23	1.0
788	1	19	24	1.0
789	1	19	25	1.0
790	1	19	26	1.0
791	1	19	27	1.0
792	1	19	28	1.0
793	1	19	29	1.0
794	1	19	30	1.0
795	1	19	31	1.0
796	1	19	32	1.0
797	1	19	33	1.0
798	1	19	34	1.0
799	1	19	35	1.0
800	1	19	36	1.0
801	1	19	37	1.0
802	1	19	38	1.0
803	1	19	39	1.0
804	1	19	40	1.0
805	1	19	41	1.0
806	1	19	42	1.0
807	1	19	43	1.0
808	1	19	44	1.0
809	1	19	45	1.0
810	1	19	46	1.0
811	1	19	47	1.0
812	1	19	48	1.0
813	1	19	49	1.0
814	1	19	50	1.0
815	1	19	51	1.0
816	1	19	52	1.0
817	1	20	20	1.0
818	1	20	21	1.0
819	1	20	22	1.0
820	1	20	23	1.0
821	1	20	24	1.0
822	1	20	25	1.0
823	1	20	26	1.0
824	1	20	27	1.0
825	1	20	28	1.0
826	1	20	29	1.0
827	1	20	30	1.0
828	1	20	31	1.0
829	1	20	32	1.0
830	1	20	33	1.0
831	1	20	34	1.0
832	1	20	35	1.0
833	1	20	36	1.0
834	1	20	37	1.0
835	1	20	38	1.0
836	1	20	39	1.0
837	1	20	40	1.0
838	1	20	41	1.0
839	1	20	42	1.0
840	1	20	43	1.0
841	1	20	44	1.0
842	1	20	45	1.0
843	1	20	46	1.0
844	1	20	47	1.0
845	1	20	48	1.0
846	1	20	49	1.0
847	1	20	50	1.0
848	1	20	51	1.0
849	1	20	52	1.0
850	1	21	21	1.0
851	1	21	22	1.0
852	1	21	23	1.0
853	1	21	24	1.0
854	1	21	25	1.0
855	1	21	26	1.0
856	1	21	27	1.0
857	1	21	28	1.0
858	1	21	29	1.0
859	1	21	30	1.0
860	1	21	31	1.0
861	1	21	32	1.0
862	1	21	33	1.0
863	1	21	34	1.0
864	1	21	35	1.0
865	1	21	36	1.0
866	1	21	37	1.0
867	1	21	38	1.0
868	1	21	39	1.0
869	1	21	40	1.0
870	1	21	41	1.0
871	1	21	42	1.0
872	1	21	43	1.0
873	1	21	44	1.0
874	1	21	45	1.0
875	1	21	46	1.0
876	1	21	47	1.0
877	1	21	48	1.0
878	1	21	49	1.0
879	1	21	50	1.0
880	1	21	51	1.0
881	1	21	52	1.0
882	1	22	22	1.0
883	1	22	23	1.0
884	1	22	24	1.0
885	1	22	25	1.0
886	1	22	26	1.0
887	1	22	27	1.0
888	1	22	28	1.0
889	1	22	29	1.0
890	1	22	30	1.0
891	1	22	31	1.0
892	1	22	32	1.0
893	1	22	33	1.0
894	1	22	34	1.0
895	1	22	35	1.0
896	1	22	36	1.0
897	1	22	37	1.0
898	1	22	38	1.0
899	1	22	39	1.0
900	1	22	40	1.0
901	1	22	41	1.0
902	1	22	42	1.0
903	1	22	43	1.0
904	1	22	44	1.0
905	1	22	45	1.0
906	1	22	46	1.0
907	1	22	47	1.0
908	1	22	48	1.0
909	1	22	49	1.0
910	1	22	50	1.0
911	1	22	51	1.0
912	1	22	52	1.0
913	1	23	23	1.0
914	1	23	24	1.0
915	1	23	25	1.0
916	1	23	26	1.0
917	1	23	27	1.0
918	1	23	28	1.0
919	1	23	29	1.0
920	1	23	30	1.0
921	1	23	31	1.0
922	1	23	32	1.0
923	1	23	33	1.0
924	1	23	34	1.0
925	1	23	35	1.0
926	1	23	36	1.0
927	1	23	37	1.0
928	1	23	38	1.0
929	1	23	39	1.0
930	1	23	40	1.0
931	1	23	41	1.0
932	1	23	42	1.0
933	1	23	43	1.0
934	1	23	44	1.0
935	1	23	45	1.0
936	1	23	46	1.0
937	1	23	47	1.0
938	1	23	48	1.0
939	1	23	49	1.0
940	1	23	50	1.0
941	1	23	51	1.0
942	1	23	52	1.0
943	1	24	24	1.0
944	1	24	25	1.0
945	1	24	26	1.0
946	1	24	27	1.0
947	1	24	28	1.0
948	1	24	29	1.0
949	1	24	30	1.0
950	1	24	31	1.0
951	1	24	32	1.0
952	1	24	33	1.0
953	1	24	34	1.0
954	1	24	35	1.0
955	1	24	36	1.0
956	1	24	37	1.0
957	1	24	38	1.0
958	1	24	39	1.0
959	1	24	40	1.0
960	1	24	41	1.0
961	1	24	42	1.0
962	1	24	43	1.0
963	1	24	44	1.0
964	1	24	45	1.0
965	1	24	46	1.0
966	1	24	47	1.0
967	1	24	48	1.0
968	1	24	49	1.0
969	1	24	50	1.0
970	1	24	51	1.0
971	1	24	52	1.0
972	1	25	25	1.0
973	1	25	26	1.0
974	1	25	27	1.0
975	1	25	28	1.0
976	1	25	29	1.0
977	1	25	30	1.0
978	1	25	31	1.0
979	1	25	32	1.0
980	1	25	33	1.0
981	1	25	34	1.0
982	1	25	35	1.0
983	1	25	36	1.0
984	1	25	37	1.0
985	1	25	38	1.0
986	1	25	39	1.0
987	1	25	40	1.0
988	1	25	41	1.0
989	1	25	42	1.0
990	1	25	43	1.0
991	1	25	44	1.0
992	1	25	45	1.0
993	1	25	46	1.0
994	1	25	47	1.0
995	1	25	48	1.0
996	1	25	49	1.0
997	1	25	50	1.0
998	1	25	51	1.0
999	1	25	52	1.0
1000	1	26	26	1.0
1001	1	26	27	1.0
1002	1	26	28	1.0
1003	1	26	29	1.0
1004	1	26	30	1.0
1005	1	26	31	1.0
1006	1	26	32	1.0
1007	1	26	33	1.0
1008	1	26	34	1.0
1009	1	26	35	1.0
1010	1	26	36	1.0
1011	1	26	37	1.0
1012	1	26	38	1.0
1013	1	26	39	1.0
1014	1	26	40	1.0
1015	1	26	41	1.0
1016	1	26	42	1.0
1017	1	26	43	1.0
1018	1	26	44	1.0
1019	1	26	45	1.0
1020	1	26	46	1.0
1021	1	26	47	1.0
1022	1	26	48	1.0
1023	1	26	49	1.0
1024	1	26	50	1.0
1025	1	26	51	1.0
1026	1	26	52	1.0
1027	1	27	27	1.0
1028	1	27	28	1.0
1029	1	27	29	1.0
1030	1	27	30	1.0
1031	1	27	31	1.0
1032	1	27	32	1.0
1033	1	27	33	1.0
1034	1	27	34	1.0
1035	1	27	35	1.0
1036	1	27	36	1.0
1037	1	27	37	1.0
1038	1	27	38	1.0
1039	1	27	39	1.0
1040	1	27	40	1.0
1041	1	27	41	1.0
1042	1	27	42	1.0
1043	1	27	43	1.0
1044	1	27	44	1.0
1045	1	27	45	1.0
1046	1	27	46	1.0
1047	1	27	47	1.0
1048	1	27	48	1.0
1049	1	27	49	1.0
1050	1	27	50	1.0
1051	1	27	51	1.0
1052	1	27	52	1.0
1053	1	28	28	1.0
1054	1	28	29	1.0
1055	1	28	30	1.0
1056	1	28	31	1.0
1057	1	28	32	1.0
1058	1	28	33	1.0
1059	1	28	34	1.0
1060	1	28	35	1.0
1061	1	28	36	1.0
1062	1	28	37	1.0
1063	1	28	38	1.0
1064	1	28	39	1.0
1065	1	28	40	1.0
1066	1	28	41	1.0
1067	1	28	42	1.0
1068	1	28	43	1.0
1069	1	28	44	1.0
1070	1	28	45	1.0
1071	1	28	46	1.0
1072	1	28	47	1.0
1073	1	28	48	1.0
1074	1	28	49	1.0
1075	1	28	50	1.0
1076	1	28	51	1.0
1077	1	28	52	1.0
1078	1	29	29	1.0
1079	1	29	30	1.0
1080	1	29	31	1.0
1081	1	29	32	1.0
1082	1	29	33	1.0
1083	1	29	34	1.0
1084	1	29	35	1.0
1085	1	29	36	1.0
1086	1	29	37	1.0
1087	1	29	38	1.0
1088	1	29	39	1.0
1089	1	29	40	1.0
1090	1	29	41	1.0
1091	1	29	42	1.0
1092	1	29	43	1.0
1093	1	29	44	1.0
1094	1	29	45	1.0
1095	1	29	46	1.0
1096	1	29	47	1.0
1097	1	29	48	1.0
1098	1	29	49	1.0
1099	1	29	50	1.0
1100	1	29	51	1.0
1101	1	29	52	1.0
1102	1	30	30	1.0
1103	1	30	31	1.0
1104	1	30	32	1.0
1105	1	30	33	1.0
1106	1	30	34	1.0
1107	1	30	35	1.0
1108	1	30	36	1.0
1109	1	30	37	1.0
1110	1	30	38	1.0
1111	1	30	39	1.0
1112	1	30	40	1.0
1113	1	30	41	1.0
1114	1	30	42	1.0
1115	1	30	43	1.0
1116	1	30	44	1.0
1117	1	30	45	1.0
1118	1	30	46	1.0
1119	1	30	47	1.0
1120	1	30	48	1.0
1121	1	30	49	1.0
1122	1	30	50	1.0
1123	1	30	51	1.0
1124	1	30	52	1.0
1125	1	31	31	1.0
1126	1	31	32	1.0
1127	1	31	33	1.0
1128	1	31	34	1.0
1129	1	31	35	1.0
1130	1	31	36	1.0
1131	1	31	37	1.0
1132	1	31	38	1.0
1133	1	31	39	1.0
1134	1	31	40	1.0
1135	1	31	41	1.0
1136	1	31	42	1.0
1137	1	31	43	1.0
1138	1	31	44	1.0
1139	1	31	45	1.0
1140	1	31	46	1.0
1141	1	31	47	1.0
1142	1	31	48	1.0
1143	1	31	49	1.0
1144	1	31	50	1.0
1145	1	31	51	1.0
1146	1	31	52	1.0
1147	1	32	32	1.0
1148	1	32	33	1.0
1149	1	32	34	1.0
1150	1	32	35	1.0
1151	1	32	36	1.0
1152	1	32	37	1.0
1153	1	32	38	1.0
1154	1	32	39	1.0
1155	1	32	40	1.0
1156	1	32	41	1.0
1157	1	32	42	1.0
1158	1	32	43	1.0
1159	1	32	44	1.0
1160	1	32	45	1.0
1161	1	32	46	1.0
1162	1	32	47	1.0
1163	1	32	48	1.0
1164	1	32	49	1.0
1165	1	32	50	1.0
1166	1	32	51	1.0
1167	1	32	52	1.0
1168	1	33	33	1.0
1169	1	33	34	1.0
1170	1	33	35	1.0
1171	1	33	36	1.0
1172	1	33	37	1.0
1173	1	33	38	1.0
1174	1	33	39	1.0
1175	1	33	40	1.0
1176	1	33	41	1.0
1177	1	33	42	1.0
1178	1	33	43	1.0
1179	1	33	44	1.0
1180	1	33	45	1.0
1181	1	33	46	1.0
1182	1	33	47	1.0
1183	1	33	48	1.0
1184	1	33	49	1.0
1185	1	33	50	1.0
1186	1	33	51	1.0
1187	1	33	52	1.0
1188	1	34	34	1.0
1189	1	34	35	1.0
1190	1	34	36	1.0
1191	1	34	37	1.0
1192	1	34	38	1.0
1193	1	34	39	1.0
1194	1	34	40	1.0
1195	1	34	41	1.0
1196	1	34	42	1.0
1197	1	34	43	1.0
1198	1	34	44	1.0
1199	1	34	45	1.0
1200	1	34	46	1.0
1201	1	34	47	1.0
1202	1	34	48	1.0
1203	1	34	49	1.0
1204	1	34	50	1.0
1205	1	34	51	1.0
1206	1	34	52	1.0
1207	1	35	35	1.0
1208	1	35	36	1.0
1209	1	35	37	1.0
1210	1	35	38	1.0
1211	1	35	39	1.0
1212	1	35	40	1.0
1213	1	35	41	1.0
1214	1	35	42	1.0
1215	1	35	43	1.0
1216	1	35	44	1.0
1217	1	35	45	1.0
1218	1	35	46	1.0
1219	1	35	47	1.0
1220	1	35	48	1.0
1221	1	35	49	1.0
1222	1	35	50	1.0
1223	1	35	51	1.0
1224	1	35	52	1.0
1225	1	36	36	1.0
1226	1	36	37	1.0
1227	1	36	38	1.0
1228	1	36	39	1.0
1229	1	36	40	1.0
1230	1	36	41	1.0
1231	1	36	42	1.0
1232	1	36	43	1.0
1233	1	36	44	1.0
1234	1	36	45	1.0
1235	1	36	46	1.0
1236	1	36	47	1.0
1237	1	36	48	1.0
1238	1	36	49	1.0
1239	1	36	50	1.0
1240	1	36	51	1.0
1241	1	36	52	1.0
1242	1	37	37	1.0
1243	1	37	38	1.0
1244	1	37	39	1.0
1245	1	37	40	1.0
1246	1	37	41	1.0
1247	1	37	42	1.0
1248	1	37	43	1.0
1249	1	37	44	1.0
1250	1	37	45	1.0
1251	1	37	46	1.0
1252	1	37	47	1.0
1253	1	37	48	1.0
1254	1	37	49	1.0
1255	1	37	50	1.0
1256	1	37	51	1.0
1257	1	37	52	1.0
1258	1	38	38	1.0
1259	1	38	39	1.0
1260	1	38	40	1.0
1261	1	38	41	1.0
1262	1	38	42	1.0
1263	1	38	43	1.0
1264	1	38	44	1.0
1265	1	38	45	1.0
1266	1	38	46	1.0
1267	1	38	47	1.0
1268	1	38	48	1.0
1269	1	38	49	1.0
1270	1	38	50	1.0
1271	1	38	51	1.0
1272	1	38	52	1.0
1273	1	39	39	1.0
1274	1	39	40	1.0
1275	1	39	41	1.0
1276	1	39	42	1.0
1277	1	39	43	1.0
1278	1	39	44	1.0
1279	1	39	45	1.0
1280	1	39	46	1.0
1281	1	39	47	1.0
1282	1	39	48	1.0
1283	1	39	49	1.0
1284	1	39	50	1.0
1285	1	39	51	1.0
1286	1	39	52	1.0
1287	1	40	40	1.0
1288	1	40	41	1.0
1289	1	40	42	1.0
1290	1	40	43	1.0
1291	1	40	44	1.0
1292	1	40	45	1.0
1293	1	40	46	1.0
1294	1	40	47	1.0
1295	1	40	48	1.0
1296	1	40	49	1.0
1297	1	40	50	1.0
1298	1	40	51	1.0
1299	1	40	52	1.0
1300	1	41	41	1.0
1301	1	41	42	1.0
1302	1	41	43	1.0
1303	1	41	44	1.0
1304	1	41	45	1.0
1305	1	41	46	1.0
1306	1	41	47	1.0
1307	1	41	48	1.0
1308	1	41	49	1.0
1309	1	41	50	1.0
1310	1	41	51	1.0
1311	1	41	52	1.0
1312	1	42	42	1.0
1313	1	42	43	1.0
1314	1	42	44	1.0
1315	1	42	45	1.0
1316	1	42	46	1.0
1317	1	42	47	1.0
1318	1	42	48	1.0
1319	1	42	49	1.0
1320	1	42	50	1.0
1321	1	42	51	1.0
1322	1	42	52	1.0
1323	1	43	43	1.0
1324	1	43	44	1.0
1325	1	43	45	1.0
1326	1	43	46	1.0
1327	1	43	47	1.0
1328	1	43	48	1.0
1329	1	43	49	1.0
1330	1	43	50	1.0
1331	1	43	51	1.0
1332	1	43	52	1.0
1333	1	44	44	1.0
1334	1	44	45	1.0
1335	1	44	46	1.0
1336	1	44	47	1.0
1337	1	44	48	1.0
1338	1	44	49	1.0
1339	1	44	50	1.0
1340	1	44	51	1.0
1341	1	44	52	1.0
1342	1	45	45	1.0
1343	1	45	46	1.0
1344	1	45	47	1.0
1345	1	45	48	1.0
1346	1	45	49	1.0
1347	1	45	50	1.0
1348	1	45	51	1.0
1349	1	45	52	1.0
1350	1	46	46	1.0
1351	1	46	47	1.0
1352	1	46	48	1.0
1353	1	46	49	1.0
1354	1	46	50	1.0
1355	1	46	51	1.0
1356	1	46	52	1.0
1357	1	47	47	1.0
1358	1	47	48	1.0
1359	1	47	49	1.0
1360	1	47	50	1.0
1361	1	47	51	1.0
1362	1	47	52	1.0
1363	1	48	48	1.0
1364	1	48	49	1.0
1365	1	48	50	1.0
1366	1	48	51	1.0
1367	1	48	52	1.0
1368	1	49	49	1.0
1369	1	49	50	1.0
1370	1	49	51	1.0
1371	1	49	52	1.0
1372	1	50	50	1.0
1373	1	50	51	1.0
1374	1	50	52	1.0
1375	1	51	51	1.0
1376	1	51	52	1.0
1377	1	52	52	1.0
